0000000000000000
0000000011111000
0000000000011000
0000000000011000
0000000000011000
0000000000011000
0000000000011000
0000000000011000
0000000000011000
0000000000011000
0000000000011000
0000000000011000
0000000000011000
0000000000011000
0000000000000000
0000000000000000
